n=214;
k_min=7;
k_max=7;
M=[| 166, 139, 160, 122, 144, 122, 143
 | 163, 138, 155, 125, 151, 119, 145
 | 164, 139, 154, 125, 152, 119, 145
 | 165, 140, 157, 124, 148, 120, 144
 | 164, 140, 155, 124, 151, 120, 144
 | 165, 141, 154, 125, 149, 121, 143
 | 164, 140, 155, 123, 150, 120, 144
 | 164, 141, 155, 123, 150, 121, 144
 | 166, 137, 158, 124, 147, 118, 146
 | 166, 141, 155, 122, 149, 120, 143
 | 164, 142, 153, 124, 150, 121, 143
 | 165, 142, 155, 122, 148, 121, 143
 | 164, 141, 153, 124, 151, 121, 143
 | 164, 142, 154, 122, 149, 121, 143
 | 164, 143, 154, 122, 148, 122, 142
 | 164, 142, 154, 122, 149, 121, 143
 | 164, 143, 155, 121, 147, 122, 143
 | 161, 139, 166, 121, 142, 121, 146
 | 166, 139, 161, 119, 146, 120, 146
 | 166, 141, 156, 122, 148, 120, 144
 | 164, 142, 156, 122, 147, 121, 143
 | 159, 140, 166, 119, 145, 121, 147
 | 165, 143, 157, 122, 147, 122, 143
 | 166, 142, 155, 121, 148, 121, 143
 | 164, 140, 157, 122, 149, 120, 145
 | 165, 142, 156, 122, 148, 121, 143
 | 165, 140, 156, 122, 148, 120, 144
 | 165, 142, 155, 122, 149, 121, 143
 | 164, 143, 154, 122, 148, 122, 143
 | 165, 141, 156, 122, 148, 120, 144
 | 165, 143, 155, 121, 147, 122, 143
 | 164, 143, 155, 121, 149, 122, 143
 | 164, 142, 155, 122, 148, 121, 143
 | 163, 144, 153, 122, 149, 123, 143
 | 165, 143, 156, 121, 147, 122, 143
 | 165, 141, 157, 121, 148, 120, 145
 | 163, 139, 160, 123, 145, 120, 147
 | 165, 143, 155, 121, 147, 121, 143
 | 160, 141, 166, 118, 142, 123, 146
 | 160, 141, 166, 118, 142, 123, 146
 | 164, 143, 156, 121, 147, 122, 143
 | 164, 143, 154, 121, 148, 122, 143
 | 165, 141, 157, 122, 148, 120, 145
 | 160, 141, 164, 119, 142, 125, 146
 | 164, 143, 156, 121, 147, 122, 143
 | 164, 140, 161, 121, 144, 121, 146
 | 163, 142, 158, 121, 147, 121, 145
 | 159, 142, 163, 119, 141, 125, 147
 | 159, 144, 162, 118, 141, 127, 145
 | 164, 140, 160, 121, 145, 120, 146
 | 158, 142, 162, 119, 141, 127, 146
 | 166, 142, 159, 119, 144, 121, 145
 | 161, 142, 159, 119, 148, 120, 147
 | 162, 143, 158, 119, 147, 121, 147
 | 162, 143, 158, 118, 148, 121, 147
 | 162, 146, 154, 118, 148, 124, 143
 | 164, 141, 155, 123, 149, 121, 144
 | 165, 142, 155, 122, 148, 121, 143
 | 164, 139, 155, 124, 150, 120, 144
 | 165, 140, 156, 123, 149, 120, 144
 | 163, 140, 159, 120, 148, 121, 146
 | 161, 139, 159, 123, 145, 121, 147
 | 161, 141, 166, 119, 142, 123, 145
 | 159, 141, 164, 120, 141, 124, 146
 | 161, 142, 165, 118, 142, 124, 145
 | 163, 140, 163, 118, 143, 122, 146
 | 160, 144, 162, 118, 142, 126, 145
 | 160, 145, 161, 117, 142, 126, 145
 | 161, 144, 162, 117, 142, 126, 145
 | 158, 144, 162, 118, 141, 128, 146
 | 166, 137, 155, 127, 149, 117, 146
 | 166, 138, 159, 124, 146, 119, 144
 | 164, 140, 153, 125, 151, 120, 143
 | 164, 139, 154, 125, 150, 119, 144
 | 165, 140, 153, 125, 150, 120, 143
 | 165, 140, 153, 125, 150, 120, 143
 | 166, 138, 156, 125, 148, 119, 144
 | 166, 140, 154, 124, 149, 120, 143
 | 163, 138, 155, 124, 152, 119, 146
 | 164, 141, 153, 126, 149, 120, 143
 | 164, 141, 153, 127, 148, 120, 143
 | 164, 140, 153, 125, 152, 119, 144
 | 166, 139, 155, 124, 150, 119, 144
 | 165, 140, 154, 125, 149, 119, 144
 | 159, 137, 152, 133, 151, 119, 146
 | 164, 140, 156, 123, 149, 120, 145
 | 166, 140, 153, 122, 152, 119, 144
 | 166, 139, 155, 124, 149, 119, 144
 | 165, 140, 154, 124, 149, 120, 144
 | 164, 142, 152, 125, 149, 121, 143
 | 163, 142, 160, 122, 144, 122, 143
 | 164, 141, 154, 122, 150, 121, 144
 | 163, 141, 155, 121, 151, 121, 145
 | 164, 140, 154, 122, 151, 120, 145
 | 164, 142, 153, 124, 150, 121, 143
 | 164, 140, 158, 122, 147, 120, 145
 | 164, 142, 160, 120, 144, 122, 144
 | 161, 146, 153, 121, 147, 125, 142
 | 163, 143, 154, 122, 149, 121, 144
 | 163, 143, 156, 120, 148, 121, 145
 | 166, 143, 155, 119, 149, 120, 144
 | 161, 147, 155, 120, 145, 124, 144
 | 160, 147, 155, 116, 148, 126, 144
 | 149, 146, 160, 120, 140, 135, 146
 | 152, 145, 166, 116, 141, 128, 148
 | 139, 155, 143, 123, 141, 154, 142
 | 140, 148, 144, 132, 142, 148, 141
 | 138, 150, 144, 128, 140, 154, 141
 | 138, 166, 146, 111, 148, 134, 153
 | 143, 155, 148, 116, 148, 138, 150
 | 138, 151, 142, 122, 139, 165, 140
 | 138, 151, 141, 122, 139, 166, 140
 | 138, 155, 144, 120, 140, 157, 142
 | 165, 139, 157, 124, 148, 120, 144
 | 164, 140, 158, 124, 146, 121, 143
 | 165, 139, 158, 124, 147, 120, 144
 | 165, 140, 158, 124, 147, 120, 144
 | 163, 138, 156, 128, 148, 119, 145
 | 165, 139, 155, 125, 149, 119, 144
 | 165, 138, 155, 125, 149, 119, 145
 | 164, 140, 158, 123, 147, 120, 144
 | 165, 141, 154, 125, 149, 120, 143
 | 165, 140, 155, 124, 150, 120, 144
 | 166, 138, 155, 125, 149, 118, 145
 | 165, 141, 157, 122, 148, 120, 144
 | 164, 141, 157, 123, 146, 121, 144
 | 164, 142, 157, 122, 147, 121, 143
 | 156, 144, 166, 114, 145, 120, 151
 | 156, 144, 162, 116, 147, 120, 151
 | 147, 151, 157, 113, 148, 125, 155
 | 144, 156, 153, 112, 147, 131, 153
 | 137, 158, 146, 120, 143, 147, 145
 | 166, 139, 157, 124, 148, 120, 143
 | 166, 138, 158, 125, 146, 119, 144
 | 166, 139, 156, 123, 149, 120, 143
 | 166, 140, 158, 123, 146, 120, 143
 | 166, 141, 156, 122, 148, 121, 143
 | 166, 141, 154, 124, 149, 120, 143
 | 166, 141, 152, 124, 151, 120, 142
 | 166, 141, 153, 124, 150, 120, 143
 | 166, 139, 155, 125, 149, 119, 144
 | 166, 140, 157, 122, 148, 120, 144
 | 164, 141, 154, 124, 149, 121, 143
 | 166, 140, 154, 124, 148, 119, 144
 | 163, 143, 156, 120, 148, 121, 145
 | 163, 142, 158, 123, 146, 122, 143
 | 163, 140, 158, 120, 149, 121, 146
 | 165, 140, 156, 123, 149, 119, 144
 | 166, 140, 157, 122, 148, 119, 144
 | 162, 145, 154, 124, 146, 124, 142
 | 164, 140, 156, 124, 148, 120, 145
 | 160, 140, 166, 119, 142, 123, 146
 | 163, 141, 158, 118, 148, 122, 146
 | 164, 140, 156, 123, 149, 119, 145
 | 163, 143, 158, 122, 146, 122, 144
 | 164, 142, 156, 121, 149, 121, 144
 | 164, 140, 158, 121, 148, 120, 146
 | 160, 141, 165, 118, 142, 124, 146
 | 164, 140, 159, 122, 145, 120, 146
 | 164, 140, 159, 123, 145, 120, 146
 | 166, 141, 159, 121, 145, 120, 146
 | 166, 140, 159, 118, 147, 121, 146
 | 161, 140, 164, 122, 143, 122, 146
 | 166, 134, 144, 142, 148, 121, 141
 | 154, 149, 156, 116, 146, 127, 148
 | 147, 161, 148, 116, 141, 141, 142
 | 146, 166, 146, 117, 139, 143, 140
 | 142, 155, 146, 117, 147, 142, 147
 | 146, 149, 147, 122, 151, 133, 149
 | 141, 158, 147, 115, 150, 137, 150
 | 137, 166, 145, 114, 145, 142, 148
 | 145, 136, 140, 166, 143, 127, 139
 | 145, 137, 140, 165, 144, 127, 139
 | 137, 164, 145, 115, 144, 144, 147
 | 152, 145, 156, 121, 149, 125, 149
 | 143, 155, 148, 114, 148, 139, 149
 | 156, 144, 162, 114, 147, 120, 153
 | 156, 145, 166, 111, 145, 122, 151
 | 155, 144, 159, 116, 149, 119, 155
 | 155, 144, 161, 114, 149, 119, 154
 | 152, 140, 150, 122, 166, 119, 148
 | 143, 152, 151, 111, 154, 119, 166
 | 139, 157, 147, 113, 155, 130, 156
 | 140, 160, 147, 113, 148, 135, 153
 | 145, 144, 145, 133, 153, 129, 148
 | 166, 135, 146, 138, 149, 120, 141
 | 166, 135, 148, 138, 149, 119, 142
 | 164, 140, 159, 121, 146, 120, 146
 | 150, 144, 154, 128, 146, 124, 151
 | 150, 144, 151, 131, 147, 124, 150
 | 154, 143, 156, 119, 153, 120, 152
 | 143, 146, 147, 121, 165, 120, 155
 | 144, 146, 147, 121, 163, 122, 153
 | 144, 146, 147, 124, 163, 122, 153
 | 144, 145, 146, 123, 165, 122, 152
 | 144, 146, 147, 120, 164, 122, 153
 | 144, 148, 147, 119, 162, 124, 153
 | 143, 147, 147, 119, 166, 120, 155
 | 143, 146, 146, 120, 166, 121, 154
 | 143, 147, 147, 122, 163, 120, 156
 | 144, 146, 147, 124, 162, 121, 154
 | 147, 146, 144, 136, 146, 134, 143
 | 144, 145, 147, 124, 162, 121, 153
 | 144, 145, 146, 125, 163, 122, 152
 | 143, 146, 147, 121, 164, 120, 155
 | 143, 146, 147, 123, 162, 122, 153
 | 143, 147, 147, 123, 162, 122, 154
 | 148, 138, 142, 137, 166, 121, 144
 | 142, 148, 147, 118, 166, 121, 155
 | 143, 146, 147, 123, 162, 123, 153
 | 144, 145, 146, 125, 162, 122, 152
 | 144, 144, 146, 123, 166, 122, 151
 | 145, 145, 146, 123, 165, 122, 151
 | 144, 145, 146, 123, 165, 122, 151 |];
 P=[1, 1, 1, 1, 1, 1, 1, 1, 1, 1, 1, 1, 1, 1, 1, 1, 1, 3, 1, 1, 1, 3, 1, 1, 1, 1, 1, 1, 1, 1, 1, 1, 1, 1, 1, 1, 1, 1, 3, 3, 1, 1, 1, 3, 1, 1, 1, 3, 3, 1, 3, 1, 1, 1, 1, 1, 1, 1, 1, 1, 1, 1, 3, 3, 3, 3, 3, 3, 3, 3, 1, 1, 1, 1, 1, 1, 1, 1, 1, 1, 1, 1, 1, 1, 1, 1, 1, 1, 1, 1, 1, 1, 1, 1, 1, 1, 1, 1, 1, 1, 1, 1, 1, 3, 3, 6, 6, 6, 2, 2, 6, 6, 6, 1, 1, 1, 1, 1, 1, 1, 1, 1, 1, 1, 1, 1, 1, 3, 3, 3, 2, 6, 1, 1, 1, 1, 1, 1, 1, 1, 1, 1, 1, 1, 1, 1, 1, 1, 1, 1, 1, 3, 1, 1, 1, 1, 1, 3, 1, 1, 1, 1, 3, 1, 3, 2, 2, 2, 2, 2, 2, 4, 4, 2, 3, 2, 3, 3, 3, 3, 5, 7, 2, 2, 5, 1, 1, 1, 3, 3, 7, 5, 5, 5, 5, 5, 5, 5, 5, 5, 5, 2, 5, 5, 5, 5, 5, 5, 5, 5, 5, 5, 5, 5 ];